nr = 4;
nc = 6;
ndefh = 5;
ndefv = 4;
r = 2;
s = 19;
defH = array2d(1..ndefh, 1..3,
       [ 1,17,3,
         8,11,3,
         13,22,4,
         19,6,2,
         22,7,3
        ]);
defV = array2d(1..ndefv, 1..3,
       [ 
        2,21,4,
        3,18,3,
        12,11,3,
        13,4,2
        
        ]);
        
problem = array2d(1..nr, 1..nc,
          [
            1,1,1,0,0,0,
            0,1,1,1,0,1,
            1,1,1,1,0,1,
            1,1,0,1,1,1
            ]);